NAME: line_10_9
TYPE: TSP
COMMENT: line_10_9
DIMENSION: 10
EDGE_WEIGHT_TYPE: EUC_2D
NODE_COORD_SECTION
1 0.0 15.0
2 0.0 27.0
3 0.0 67.0
4 0.0 42.0
5 0.0 59.0
6 0.0 45.0
7 0.0 46.0
8 0.0 71.0
9 0.0 27.0
10 0.0 32.0
